g9 0 1 0 3 20170614 0 4 0 240	# problem hs111lnp
 10 3 1 0 3	# vars, constraints, objectives, ranges, eqns
 3 1	# nonlinear constraints, objectives
 0 0	# network constraints: nonlinear, linear
 10 10 10	# nonlinear vars in constraints, objectives, both
 0 0 0 1	# linear network variables; functions; arith, flags
 0 0 0 0 0	# discrete variables: binary, integer, nonlinear (b,c,o)
 14 10	# nonzeros in Jacobian, gradients
 0 0	# max name lengths: constraints, variables
 0 0 0 0 0	# common exprs: b,c,o,c1,o1
b
3
3
3
3
3
3
3
3
3
3
x10
0 -2.3
1 -2.3
2 -2.3
3 -2.3
4 -2.3
5 -2.3
6 -2.3
7 -2.3
8 -2.3
9 -2.3
r
4 2
4 1
4 1
C0
o54
5
o44
v0
o2
n2
o44
v1
o2
n2
o44
v2
o44
v5
o44
v9
C1
o54
4
o44
v3
o2
n2
o44
v4
o44
v5
o44
v6
C2
o54
5
o44
v2
o44
v6
o44
v7
o2
n2
o44
v8
o44
v9
O0 0
o54
10
o2
o44
v0
o1
o0
n-6.089
v0
o43
o54
10
o44
v0
o44
v1
o44
v2
o44
v3
o44
v4
o44
v5
o44
v6
o44
v7
o44
v8
o44
v9
o2
o44
v1
o1
o0
n-17.164
v1
o43
o54
10
o44
v0
o44
v1
o44
v2
o44
v3
o44
v4
o44
v5
o44
v6
o44
v7
o44
v8
o44
v9
o2
o44
v2
o1
o0
n-34.054
v2
o43
o54
10
o44
v0
o44
v1
o44
v2
o44
v3
o44
v4
o44
v5
o44
v6
o44
v7
o44
v8
o44
v9
o2
o44
v3
o1
o0
n-5.914
v3
o43
o54
10
o44
v0
o44
v1
o44
v2
o44
v3
o44
v4
o44
v5
o44
v6
o44
v7
o44
v8
o44
v9
o2
o44
v4
o1
o0
n-24.721
v4
o43
o54
10
o44
v0
o44
v1
o44
v2
o44
v3
o44
v4
o44
v5
o44
v6
o44
v7
o44
v8
o44
v9
o2
o44
v5
o1
o0
n-14.986
v5
o43
o54
10
o44
v0
o44
v1
o44
v2
o44
v3
o44
v4
o44
v5
o44
v6
o44
v7
o44
v8
o44
v9
o2
o44
v6
o1
o0
n-24.1
v6
o43
o54
10
o44
v0
o44
v1
o44
v2
o44
v3
o44
v4
o44
v5
o44
v6
o44
v7
o44
v8
o44
v9
o2
o44
v7
o1
o0
n-10.708
v7
o43
o54
10
o44
v0
o44
v1
o44
v2
o44
v3
o44
v4
o44
v5
o44
v6
o44
v7
o44
v8
o44
v9
o2
o44
v8
o1
o0
n-26.662
v8
o43
o54
10
o44
v0
o44
v1
o44
v2
o44
v3
o44
v4
o44
v5
o44
v6
o44
v7
o44
v8
o44
v9
o2
o44
v9
o1
o0
n-22.179
v9
o43
o54
10
o44
v0
o44
v1
o44
v2
o44
v3
o44
v4
o44
v5
o44
v6
o44
v7
o44
v8
o44
v9
k9
1
2
4
5
6
8
10
11
12
J0 5
0 0
1 0
2 0
5 0
9 0
J1 4
3 0
4 0
5 0
6 0
J2 5
2 0
6 0
7 0
8 0
9 0
G0 10
0 0
1 0
2 0
3 0
4 0
5 0
6 0
7 0
8 0
9 0
